# Objective value = 5031
I_0_0 1301
I_0_1 1445
I_0_2 1407
I_0_3 1.9549999999999998e+03
I_1_0 51
I_1_1 51
I_1_2 5.0999999999999993e+01
I_1_3 0
I_2_0 26
I_2_1 0
I_2_2 26
I_2_3 -3.5527136788005009e-14
I_3_0 44
I_3_1 4.4000000000000014e+01
I_3_2 4.4000000000000021e+01
I_3_3 -2.2204460492503131e-14
I_4_0 91
I_4_1 91
I_4_2 91
I_4_3 9.9475983006414026e-14
I_5_0 102
I_5_1 102
I_5_2 51
I_5_3 -1.7763568394002505e-14
I_6_0 69
I_6_1 69
I_6_2 6.8999999999999986e+01
I_6_3 3.5083047578154947e-14
I_7_0 19
I_7_1 8.7013729554996644e-15
I_7_2 1.9000000000000007e+01
I_7_3 -8.6597395920762210e-15
I_8_0 110
I_8_1 110
I_8_2 5.5000000000000050e+01
I_8_3 4.9737991503207013e-14
I_9_0 198
I_9_1 99
I_9_2 198
I_9_3 9.9000000000000014e+01
I_10_0 43
I_10_1 43
I_10_2 4.3000000000000014e+01
I_10_3 -3.5527136788005009e-15
q_1_0_0 51
q_1_0_1 0
q_1_0_2 0
q_1_1_0 0
q_1_1_1 51
q_1_1_2 0
q_2_0_0 0
q_2_0_1 0
q_2_0_2 0
q_2_1_0 0
q_2_1_1 5.1999999999999993e+01
q_2_1_2 -3.1974423109204508e-14
q_3_0_0 44
q_3_0_1 0
q_3_0_2 -4.4408920985006262e-14
q_3_1_0 1.0685896612017132e-14
q_3_1_1 4.4000000000000007e+01
q_3_1_2 0
q_4_0_0 91
q_4_0_1 0
q_4_0_2 1.0125233984581428e-13
q_4_1_0 0
q_4_1_1 91
q_4_1_2 0
q_5_0_0 51
q_5_0_1 0
q_5_0_2 -2.1760371282653068e-14
q_5_1_0 0
q_5_1_1 -3.5527136788005009e-15
q_5_1_2 0
q_6_0_0 69
q_6_0_1 0
q_6_0_2 0
q_6_1_0 0
q_6_1_1 69
q_6_1_2 4.7073456244106637e-14
q_7_0_0 1.3183898417423734e-14
q_7_0_1 0
q_7_0_2 -1.7097434579227411e-14
q_7_1_0 -4.4825254619240695e-15
q_7_1_1 38
q_7_1_2 0
q_8_0_0 5.5000000000000014e+01
q_8_0_1 0
q_8_0_2 0
q_8_1_0 -1.3548190347378863e-14
q_8_1_1 5.6843418860808015e-14
q_8_1_2 0
q_9_0_0 0
q_9_0_1 198
q_9_0_2 3.5527136788005009e-15
q_9_1_0 0
q_9_1_1 0
q_9_1_2 3.5527136788005009e-15
q_10_0_0 43
q_10_0_1 0
q_10_0_2 0
q_10_1_0 0
q_10_1_1 4.3000000000000014e+01
q_10_1_2 0
y_0_0_0 1
y_0_0_1 1
y_0_0_2 9.71445146547012e-17
y_0_1_0 0
y_0_1_1 1
y_0_1_2 0
y_1_0_0 1
y_1_0_1 0
y_1_0_2 0
y_1_1_0 0
y_1_1_1 1
y_1_1_2 0
y_2_0_0 0
y_2_0_1 0
y_2_0_2 0
y_2_1_0 0
y_2_1_1 1
y_2_1_2 0
y_3_0_0 1
y_3_0_1 0
y_3_0_2 -5.0653925498522767e-16
y_3_1_0 2.42861286636753e-16
y_3_1_1 1
y_3_1_2 0
y_4_0_0 1
y_4_0_1 0
y_4_0_2 0
y_4_1_0 0
y_4_1_1 1
y_4_1_2 0
y_5_0_0 1
y_5_0_1 0
y_5_0_2 -1.4224732503009818e-16
y_5_1_0 0
y_5_1_1 -2.7755575615628914e-17
y_5_1_2 0
y_6_0_0 1
y_6_0_1 0
y_6_0_2 0
y_6_1_0 0
y_6_1_1 1
y_6_1_2 5.0653925498522767e-16
y_7_0_0 6.9388939039072284e-16
y_7_0_1 0
y_7_0_2 -4.5102810375396984e-16
y_7_1_0 -2.3592239273284576e-16
y_7_1_1 1
y_7_1_2 0
y_8_0_0 1.0000000000000002e+00
y_8_0_1 0
y_8_0_2 0
y_8_1_0 -2.4633073358870661e-16
y_8_1_1 0
y_8_1_2 0
y_9_0_0 0
y_9_0_1 1
y_9_0_2 0
y_9_1_0 0
y_9_1_1 0
y_9_1_2 9.0205620750793969e-17
y_10_0_0 1
y_10_0_1 0
y_10_0_2 0
y_10_1_0 0
y_10_1_1 1
y_10_1_2 0
x_0_1_0_0 0
x_0_1_0_1 0
x_0_1_0_2 0
x_0_1_1_0 0
x_0_1_1_1 0
x_0_1_1_2 0
x_0_2_0_0 0
x_0_2_0_1 0
x_0_2_0_2 0
x_0_2_1_0 0
x_0_2_1_1 0
x_0_2_1_2 0
x_0_3_0_0 0
x_0_3_0_1 0
x_0_3_0_2 0
x_0_3_1_0 0
x_0_3_1_1 0
x_0_3_1_2 0
x_0_4_0_0 -8.8817841970012523e-16
x_0_4_0_1 0
x_0_4_0_2 0
x_0_4_1_0 0
x_0_4_1_1 0
x_0_4_1_2 0
x_0_5_0_0 1.0000000000000002e+00
x_0_5_0_1 0
x_0_5_0_2 1.6653345369377348e-16
x_0_5_1_0 0
x_0_5_1_1 0
x_0_5_1_2 0
x_0_6_0_0 1
x_0_6_0_1 0
x_0_6_0_2 0
x_0_6_1_0 0
x_0_6_1_1 1
x_0_6_1_2 1.0130785099704553e-15
x_0_7_0_0 7.0776717819853729e-16
x_0_7_0_1 0
x_0_7_0_2 0
x_0_7_1_0 0
x_0_7_1_1 1
x_0_7_1_2 0
x_0_8_0_0 0
x_0_8_0_1 0
x_0_8_0_2 0
x_0_8_1_0 0
x_0_8_1_1 0
x_0_8_1_2 0
x_0_9_0_0 0
x_0_9_0_1 2
x_0_9_0_2 0
x_0_9_1_0 0
x_0_9_1_1 0
x_0_9_1_2 1.8041124150158794e-16
x_0_10_0_0 0
x_0_10_0_1 0
x_0_10_0_2 0
x_0_10_1_0 0
x_0_10_1_1 0
x_0_10_1_2 0
x_1_2_0_0 0
x_1_2_0_1 0
x_1_2_0_2 0
x_1_2_1_0 0
x_1_2_1_1 0
x_1_2_1_2 0
x_1_3_0_0 1.0000000000000004e+00
x_1_3_0_1 0
x_1_3_0_2 0
x_1_3_1_0 0
x_1_3_1_1 1
x_1_3_1_2 0
x_1_4_0_0 0
x_1_4_0_1 0
x_1_4_0_2 0
x_1_4_1_0 0
x_1_4_1_1 0
x_1_4_1_2 0
x_1_5_0_0 1
x_1_5_0_1 0
x_1_5_0_2 0
x_1_5_1_0 2.42861286636753e-16
x_1_5_1_1 -2.7755575615628914e-17
x_1_5_1_2 0
x_1_6_0_0 0
x_1_6_0_1 0
x_1_6_0_2 0
x_1_6_1_0 0
x_1_6_1_1 0
x_1_6_1_2 0
x_1_7_0_0 0
x_1_7_0_1 0
x_1_7_0_2 0
x_1_7_1_0 -2.3592239273284576e-16
x_1_7_1_1 1
x_1_7_1_2 0
x_1_8_0_0 0
x_1_8_0_1 0
x_1_8_0_2 0
x_1_8_1_0 0
x_1_8_1_1 0
x_1_8_1_2 0
x_1_9_0_0 0
x_1_9_0_1 0
x_1_9_0_2 0
x_1_9_1_0 0
x_1_9_1_1 0
x_1_9_1_2 0
x_1_10_0_0 0
x_1_10_0_1 0
x_1_10_0_2 0
x_1_10_1_0 0
x_1_10_1_1 0
x_1_10_1_2 0
x_2_3_0_0 0
x_2_3_0_1 0
x_2_3_0_2 0
x_2_3_1_0 0
x_2_3_1_1 0
x_2_3_1_2 0
x_2_4_0_0 0
x_2_4_0_1 0
x_2_4_0_2 0
x_2_4_1_0 0
x_2_4_1_1 9.9999999999999978e-01
x_2_4_1_2 0
x_2_5_0_0 0
x_2_5_0_1 0
x_2_5_0_2 0
x_2_5_1_0 0
x_2_5_1_1 0
x_2_5_1_2 0
x_2_6_0_0 0
x_2_6_0_1 0
x_2_6_0_2 0
x_2_6_1_0 0
x_2_6_1_1 0
x_2_6_1_2 0
x_2_7_0_0 0
x_2_7_0_1 0
x_2_7_0_2 0
x_2_7_1_0 0
x_2_7_1_1 0
x_2_7_1_2 0
x_2_8_0_0 0
x_2_8_0_1 0
x_2_8_0_2 0
x_2_8_1_0 0
x_2_8_1_1 0
x_2_8_1_2 0
x_2_9_0_0 0
x_2_9_0_1 0
x_2_9_0_2 0
x_2_9_1_0 0
x_2_9_1_1 0
x_2_9_1_2 0
x_2_10_0_0 0
x_2_10_0_1 0
x_2_10_0_2 0
x_2_10_1_0 0
x_2_10_1_1 1.0000000000000002e+00
x_2_10_1_2 0
x_3_4_0_0 0
x_3_4_0_1 0
x_3_4_0_2 0
x_3_4_1_0 0
x_3_4_1_1 0
x_3_4_1_2 0
x_3_5_0_0 -7.4940054162198066e-16
x_3_5_0_1 0
x_3_5_0_2 0
x_3_5_1_0 0
x_3_5_1_1 0
x_3_5_1_2 0
x_3_6_0_0 0
x_3_6_0_1 0
x_3_6_0_2 0
x_3_6_1_0 0
x_3_6_1_1 0
x_3_6_1_2 0
x_3_7_0_0 -1.3877787807814457e-16
x_3_7_0_1 0
x_3_7_0_2 -4.5102810375396984e-16
x_3_7_1_0 0
x_3_7_1_1 0
x_3_7_1_2 0
x_3_8_0_0 1.0000000000000011e+00
x_3_8_0_1 0
x_3_8_0_2 0
x_3_8_1_0 0
x_3_8_1_1 0
x_3_8_1_2 0
x_3_9_0_0 0
x_3_9_0_1 0
x_3_9_0_2 0
x_3_9_1_0 0
x_3_9_1_1 0
x_3_9_1_2 0
x_3_10_0_0 -6.6613381477509392e-16
x_3_10_0_1 0
x_3_10_0_2 0
x_3_10_1_0 4.85722573273506e-16
x_3_10_1_1 1
x_3_10_1_2 0
x_4_5_0_0 0
x_4_5_0_1 0
x_4_5_0_2 0
x_4_5_1_0 0
x_4_5_1_1 0
x_4_5_1_2 0
x_4_6_0_0 9.9999999999999956e-01
x_4_6_0_1 0
x_4_6_0_2 0
x_4_6_1_0 0
x_4_6_1_1 1.0000000000000002e+00
x_4_6_1_2 0
x_4_7_0_0 0
x_4_7_0_1 0
x_4_7_0_2 0
x_4_7_1_0 0
x_4_7_1_1 0
x_4_7_1_2 0
x_4_8_0_0 0
x_4_8_0_1 0
x_4_8_0_2 0
x_4_8_1_0 0
x_4_8_1_1 5.5511151231257827e-17
x_4_8_1_2 0
x_4_9_0_0 0
x_4_9_0_1 0
x_4_9_0_2 0
x_4_9_1_0 0
x_4_9_1_1 0
x_4_9_1_2 0
x_4_10_0_0 1
x_4_10_0_1 0
x_4_10_0_2 0
x_4_10_1_0 0
x_4_10_1_1 0
x_4_10_1_2 0
x_5_6_0_0 0
x_5_6_0_1 0
x_5_6_0_2 0
x_5_6_1_0 0
x_5_6_1_1 0
x_5_6_1_2 0
x_5_7_0_0 1.1379786002407855e-15
x_5_7_0_1 0
x_5_7_0_2 -4.5102810375396984e-16
x_5_7_1_0 -2.3592239273284576e-16
x_5_7_1_1 -2.7755575615628914e-17
x_5_7_1_2 0
x_5_8_0_0 0
x_5_8_0_1 0
x_5_8_0_2 0
x_5_8_1_0 0
x_5_8_1_1 0
x_5_8_1_2 0
x_5_9_0_0 0
x_5_9_0_1 0
x_5_9_0_2 0
x_5_9_1_0 0
x_5_9_1_1 0
x_5_9_1_2 0
x_5_10_0_0 0
x_5_10_0_1 0
x_5_10_0_2 0
x_5_10_1_0 0
x_5_10_1_1 0
x_5_10_1_2 0
x_6_7_0_0 0
x_6_7_0_1 0
x_6_7_0_2 0
x_6_7_1_0 0
x_6_7_1_1 0
x_6_7_1_2 0
x_6_8_0_0 0
x_6_8_0_1 0
x_6_8_0_2 0
x_6_8_1_0 0
x_6_8_1_1 0
x_6_8_1_2 0
x_6_9_0_0 0
x_6_9_0_1 0
x_6_9_0_2 0
x_6_9_1_0 0
x_6_9_1_1 0
x_6_9_1_2 0
x_6_10_0_0 0
x_6_10_0_1 0
x_6_10_0_2 0
x_6_10_1_0 0
x_6_10_1_1 0
x_6_10_1_2 0
x_7_8_0_0 0
x_7_8_0_1 0
x_7_8_0_2 0
x_7_8_1_0 0
x_7_8_1_1 0
x_7_8_1_2 0
x_7_9_0_0 0
x_7_9_0_1 0
x_7_9_0_2 0
x_7_9_1_0 0
x_7_9_1_1 0
x_7_9_1_2 0
x_7_10_0_0 0
x_7_10_0_1 0
x_7_10_0_2 0
x_7_10_1_0 0
x_7_10_1_1 0
x_7_10_1_2 0
x_8_9_0_0 0
x_8_9_0_1 0
x_8_9_0_2 0
x_8_9_1_0 0
x_8_9_1_1 0
x_8_9_1_2 0
x_8_10_0_0 9.9999999999999922e-01
x_8_10_0_1 0
x_8_10_0_2 0
x_8_10_1_0 -4.85722573273506e-16
x_8_10_1_1 0
x_8_10_1_2 0
x_9_10_0_0 0
x_9_10_0_1 0
x_9_10_0_2 0
x_9_10_1_0 0
x_9_10_1_1 0
x_9_10_1_2 0
